sifdecoder -A pc64.lnx.gfo -st   NASH

 Problem name: NASH

 Double precision version will be formed

 The objective function uses 2 linear groups
 
 There are 24 linear equality constraints
 
 There are 15 free variables
 There are 3 variables bounded from below and above 
 There are 54 fixed variables
 
 
 File successfully decoded
 CUTEST: tools (double precision version) compiled successfully
 CUTEst: ipopt (double precision version) compiled successfully

******************************************************************************
This program contains Ipopt, a library for large-scale nonlinear optimization.
 Ipopt is released as open source code under the Eclipse Public License (EPL).
         For more information visit http://projects.coin-or.org/Ipopt
******************************************************************************

This is Ipopt version trunk, running with linear solver ma57.

Too few degrees of freedom (n_x = 18, n_c = 24).
  Trying fixed_variable_treatment = RELAX_BOUNDS

Number of nonzeros in equality constraint Jacobian...:      157
Number of nonzeros in inequality constraint Jacobian.:        0
Number of nonzeros in Lagrangian Hessian.............:      120

Total number of variables............................:       72
                     variables with only lower bounds:        0
                variables with lower and upper bounds:       57
                     variables with only upper bounds:        0
Total number of equality constraints.................:       24
Total number of inequality constraints...............:        0
        inequality constraints with only lower bounds:        0
   inequality constraints with lower and upper bounds:        0
        inequality constraints with only upper bounds:        0

iter    objective    inf_pr   inf_du lg(mu)  ||d||  lg(rg) alpha_du alpha_pr  ls
   0  0.0000000e+00 6.12e+01 6.17e+01  -1.0 0.00e+00    -  0.00e+00 0.00e+00   0
   1r 0.0000000e+00 6.12e+01 9.99e+02   1.8 0.00e+00    -  0.00e+00 1.13e-09R  2
   2r-6.2284723e-07 6.12e+01 9.99e+02   1.8 5.89e+02    -  5.72e-02 5.72e-05f  2
   3r-6.0249529e-07 4.49e+01 9.73e+02  -5.8 6.37e+02    -  1.01e-03 2.66e-02f  1
   4  4.0507668e-06 4.49e+01 1.01e+02  -1.0 2.26e+02    -  1.63e-09 5.43e-10f  3
   5  4.1438626e-06 4.49e+01 1.04e+02  -1.0 2.87e+02    -  3.36e-09 1.42e-11f  8
   6  4.6690009e-06 4.49e+01 1.09e+02  -1.0 2.93e+02    -  3.90e-09 8.83e-11f  6
Reallocating memory for MA57: lfact (1588)
   7r 4.6690009e-06 4.49e+01 9.99e+02   1.7 0.00e+00    -  0.00e+00 1.39e-09R  2
   8r 2.2462611e-06 4.49e+01 1.00e+03   1.7 2.43e+03    -  1.01e-02 4.67e-10f  2
   9r 2.2349201e-06 2.35e+01 9.91e+02  -4.1 3.21e+03    -  2.00e-03 8.73e-03f  1
iter    objective    inf_pr   inf_du lg(mu)  ||d||  lg(rg) alpha_du alpha_pr  ls
  10r 2.2349201e-06 2.35e+01 9.99e+02   1.4 0.00e+00    -  0.00e+00 9.41e-10R  2
  11r-1.4587533e-07 2.35e+01 1.00e+03   1.4 6.16e+03    -  3.86e-03 4.54e-10f  3
  12r-1.4620924e-07 2.47e+01 9.95e+02  -3.2 3.88e+03    -  5.24e-03 4.52e-03f  1
  13r-1.5035410e-07 2.37e+01 9.95e+02  -3.2 2.98e+04    -  6.93e-02 6.81e-04f  1
  14r-1.5036479e-07 2.37e+01 9.89e+02  -3.2 5.17e+03    -  1.12e-01 5.37e-06f  1
  15r-1.5253973e-07 1.89e+01 9.41e+02  -3.2 1.65e+02    -  6.53e-04 5.12e-02f  1
  16  2.3123732e-09 1.89e+01 1.02e+02  -1.0 2.07e+02    -  2.28e-09 1.78e-11f  8
  17r 2.3123732e-09 1.89e+01 9.99e+02   1.3 0.00e+00    -  0.00e+00 1.12e-09R  2
  18r-6.2389323e-10 1.89e+01 9.99e+02   1.3 4.99e+01    -  1.28e-01 9.94e-10f  6
  19r-1.7780149e-10 1.91e+01 8.20e+02  -5.1 5.00e+01    -  1.50e-03 1.79e-01f  1
iter    objective    inf_pr   inf_du lg(mu)  ||d||  lg(rg) alpha_du alpha_pr  ls
  20r-1.3817673e-10 1.93e+01 8.18e+02  -5.1 3.23e+03    -  2.39e-03 2.04e-03f  1
  21r 1.5981783e-09 1.95e+01 8.15e+02  -5.1 1.68e+03    -  2.62e-01 4.42e-03f  1
  22r 5.3519009e-09 1.96e+01 6.21e+02  -5.1 7.28e+01    -  1.94e-02 2.39e-01f  1
  23r 5.2154536e-09 1.93e+01 5.79e+02  -5.1 1.54e+01    -  8.86e-02 6.62e-02f  1
  24r-2.9651413e-08 3.37e+01 5.79e+02  -5.1 2.59e+05    -  9.54e-06 1.38e-03f  1
  25r-2.9651675e-08 3.37e+01 5.79e+02  -5.1 2.77e+05    -  1.39e-03 9.70e-09f  1
  26r-3.0422331e-08 3.37e+01 6.54e+02  -5.1 4.27e+01    -  1.72e-02 9.99e-02f  1
  27r-3.0422337e-08 3.37e+01 6.35e+02  -5.1 2.74e+02    -  1.80e-02 1.17e-07f  1
  28r-3.0413133e-08 3.37e+01 4.10e+02  -5.1 1.62e-01    -  1.00e+00 5.77e-02f  1
  29r 5.0802108e-06 3.37e+01 6.13e-03  -5.1 1.12e-01    -  1.00e+00 1.00e+00f  1
iter    objective    inf_pr   inf_du lg(mu)  ||d||  lg(rg) alpha_du alpha_pr  ls
  30r 2.0274454e-05 3.37e+01 7.53e-11  -5.1 5.93e-06    -  1.00e+00 1.00e+00f  1
  31r 2.6598347e-05 3.37e+01 1.24e+02  -7.7 1.49e-07    -  8.42e-01 5.54e-01f  1
  32r 4.6269403e-05 3.37e+01 1.55e+01  -7.7 3.34e-07    -  6.93e-01 9.08e-01f  1
  33r 4.9731103e-05 3.37e+01 4.66e+00  -7.7 4.39e-07    -  7.74e-01 1.00e+00f  1

Number of Iterations....: 33

                                   (scaled)                 (unscaled)
Objective...............:   4.9700933090434361e-06    4.9700933090434361e-05
Dual infeasibility......:   9.9999999998343583e+01    9.9999999998343583e+02
Constraint violation....:   3.3745576229788298e+01    3.3745576229788298e+01
Complementarity.........:   2.5254727562957598e-08    2.5254727562957596e-07
Overall NLP error.......:   5.8805910640125013e+01    9.9999999998343583e+02


Number of objective function evaluations             = 78
Number of objective gradient evaluations             = 13
Number of equality constraint evaluations            = 78
Number of inequality constraint evaluations          = 0
Number of equality constraint Jacobian evaluations   = 39
Number of inequality constraint Jacobian evaluations = 0
Number of Lagrangian Hessian evaluations             = 34
Total CPU secs in IPOPT (w/o function evaluations)   =      0.107
Total CPU secs in NLP function evaluations           =      0.006

EXIT: Converged to a point of local infeasibility. Problem may be infeasible.

************************ CUTEst statistics ************************


 Package used            :  IPOPT
 Problem                 :  NASH      
 # variables             =              72
 # constraints           =              24
 # objective functions   =        0.9200000E+02
 # objective gradients   =        0.1400000E+02
 # objective Hessians    =        0.3100000E+02
 # Hessian-vector prdct  =        0.0000000E+00
 # constraints functions =        0.1190000E+03
 # constraints gradients =        0.4100000E+02
 # constraints Hessians  =        0.3100000E+02
 Exit code               =               2
 Final f                 =        4.9700933090434361D-05
 Bounds feasibility      =        9.9794541821007004D-09
 Set up time             =            0.00 seconds
 Solve time              =            0.24 seconds


******************************************************************

